Minimize
	value: tt

Subject to
tt + 1000 s_1_1 > 0.0
tt - t_1_1 - 1005.352542 s_1_1  + 5.352542 s_1_7  > -971.308900
tt + 1000 s_2_1 > 0.0
tt - t_2_1 - 1004.968635 s_2_1  + 4.968635 s_2_7  > -956.628289
tt + 1000 s_1_2 > 0.0
tt - t_1_2 - 1005.352542 s_1_2  + 5.352542 s_1_8  > -968.333600
tt + 1000 s_2_2 > 0.0
tt - t_2_2 - 1004.968635 s_2_2  + 4.968635 s_2_8  > -952.000928
tt + 1000 s_1_3 > 0.0
tt - t_1_3 - 1005.352542 s_1_3  + 5.352542 s_1_8  > -953.530436
tt + 1000 s_2_3 > 0.0
tt - t_2_3 - 1004.968635 s_2_3  + 4.968635 s_2_8  > -927.142511
tt + 1000 s_1_4 > 0.0
tt - t_1_4 - 1008.363199 s_1_4  + 3.010658 s_1_3  + 5.352542 s_1_8  > -974.730811
tt + 1000 s_2_4 > 0.0
tt - t_2_4 - 1007.653379 s_2_4  + 2.684744 s_2_3  + 4.968635 s_2_8  > -961.402378
tt + 1000 s_1_5 > 0.0
tt - t_1_5 - 1010.705083 s_1_5  + 5.352542 s_1_7  + 5.352542 s_1_8  > -962.461933
tt + 1000 s_2_5 > 0.0
tt - t_2_5 - 1009.937270 s_2_5  + 4.968635 s_2_7  + 4.968635 s_2_8  > -947.876143
tt + 1000 s_1_6 > 0.0
tt - t_1_6 - 1015.053289 s_1_6  + 3.010658 s_1_1  + 3.010658 s_1_5  + 3.010658 s_1_4  + 3.010658 s_1_3  + 3.010658 s_1_2  > -997.860100
tt + 1000 s_2_6 > 0.0
tt - t_2_6 - 1013.423720 s_2_6  + 2.684744 s_2_1  + 2.684744 s_2_5  + 2.684744 s_2_4  + 2.684744 s_2_3  + 2.684744 s_2_2  > -966.813300
tt + 1000 s_1_7 > 0.0
tt - t_1_7 - 1000.000000 s_1_7  > -898.480800
tt + 1000 s_2_7 > 0.0
tt - t_2_7 - 1000.000000 s_2_7  > -881.834400
tt + 1000 s_1_8 > 0.0
tt - t_1_8 - 1000.000000 s_1_8  > -898.976700
tt + 1000 s_2_8 > 0.0
tt - t_2_8 - 1000.000000 s_2_8  > -881.826300
s_1_1 + s_2_1 = 1
s_1_2 + s_2_2 = 1
s_1_3 + s_2_3 = 1
s_1_4 + s_2_4 = 1
s_1_5 + s_2_5 = 1
s_1_6 + s_2_6 = 1
s_1_7 + s_2_7 = 1
s_1_8 + s_2_8 = 1
s_1_1 + s_1_2 + 1000 r_1_1_2 >= 2
- s_1_1 - s_1_2 - 1000 r_1_1_2 >= -1001
t_1_1 - t_1_2 - 1000.000000 u_1_1_2 - 5.352542 s_1_2  + 5.352542 s_1_8  + 2000.000000 r_1_1_2 > -968.333600
s_2_1 + s_2_2 + 1000 r_2_1_2 >= 2
- s_2_1 - s_2_2 - 1000 r_2_1_2 >= -1001
t_2_1 - t_2_2 - 1000.000000 u_2_1_2 - 4.968635 s_2_2  + 4.968635 s_2_8  + 2000.000000 r_2_1_2 > -952.000928
s_1_1 + s_1_3 + 1000 r_1_1_3 >= 2
- s_1_1 - s_1_3 - 1000 r_1_1_3 >= -1001
t_1_1 - t_1_3 - 1000.000000 u_1_1_3 - 5.352542 s_1_3  + 5.352542 s_1_8  + 2000.000000 r_1_1_3 > -953.530436
s_2_1 + s_2_3 + 1000 r_2_1_3 >= 2
- s_2_1 - s_2_3 - 1000 r_2_1_3 >= -1001
t_2_1 - t_2_3 - 1000.000000 u_2_1_3 - 4.968635 s_2_3  + 4.968635 s_2_8  + 2000.000000 r_2_1_3 > -927.142511
s_1_1 + s_1_4 + 1000 r_1_1_4 >= 2
- s_1_1 - s_1_4 - 1000 r_1_1_4 >= -1001
t_1_1 - t_1_4 - 1000.000000 u_1_1_4 - 8.363199 s_1_4  + 3.010658 s_1_3  + 5.352542 s_1_8  + 2000.000000 r_1_1_4 > -974.730811
s_2_1 + s_2_4 + 1000 r_2_1_4 >= 2
- s_2_1 - s_2_4 - 1000 r_2_1_4 >= -1001
t_2_1 - t_2_4 - 1000.000000 u_2_1_4 - 7.653379 s_2_4  + 2.684744 s_2_3  + 4.968635 s_2_8  + 2000.000000 r_2_1_4 > -961.402378
s_1_1 + s_1_5 + 1000 r_1_1_5 >= 2
- s_1_1 - s_1_5 - 1000 r_1_1_5 >= -1001
t_1_1 - t_1_5 - 1000.000000 u_1_1_5 - 10.705083 s_1_5  + 5.352542 s_1_7  + 5.352542 s_1_8  + 2000.000000 r_1_1_5 > -962.461933
s_2_1 + s_2_5 + 1000 r_2_1_5 >= 2
- s_2_1 - s_2_5 - 1000 r_2_1_5 >= -1001
t_2_1 - t_2_5 - 1000.000000 u_2_1_5 - 9.937270 s_2_5  + 4.968635 s_2_7  + 4.968635 s_2_8  + 2000.000000 r_2_1_5 > -947.876143
t_1_6 - t_1_1 - 1005.352542 s_1_1  + 5.352542 s_1_7  > -971.308900
t_1_6 - t_2_1 - 1004.968635 s_2_1  + 4.968635 s_2_7  > -956.628289
t_2_6 - t_1_1 - 1005.352542 s_1_1  + 5.352542 s_1_7  > -971.308900
t_2_6 - t_2_1 - 1004.968635 s_2_1  + 4.968635 s_2_7  > -956.628289
t_1_1 - t_1_7 - 1000.000000 s_1_7  > -898.480800
t_1_1 - t_2_7 - 1000.000000 s_2_7  > -881.834400
t_2_1 - t_1_7 - 1000.000000 s_1_7  > -898.480800
t_2_1 - t_2_7 - 1000.000000 s_2_7  > -881.834400
s_1_1 + s_1_8 + 1000 r_1_1_8 >= 2
- s_1_1 - s_1_8 - 1000 r_1_1_8 >= -1001
t_1_1 - t_1_8 - 1000.000000 u_1_1_8 - 0.000000 s_1_8  + 2000.000000 r_1_1_8 > -898.976700
s_2_1 + s_2_8 + 1000 r_2_1_8 >= 2
- s_2_1 - s_2_8 - 1000 r_2_1_8 >= -1001
t_2_1 - t_2_8 - 1000.000000 u_2_1_8 - 0.000000 s_2_8  + 2000.000000 r_2_1_8 > -881.826300
s_1_2 + s_1_1 + 1000 r_1_1_2 >= 2
- s_1_2 - s_1_1 - 1000 r_1_1_2 >= -1001
t_1_2 - t_1_1 + 1000.000000 u_1_1_2 - 5.352542 s_1_1  + 5.352542 s_1_7  + 2000.000000 r_1_1_2 > 28.691100
s_2_2 + s_2_1 + 1000 r_2_1_2 >= 2
- s_2_2 - s_2_1 - 1000 r_2_1_2 >= -1001
t_2_2 - t_2_1 + 1000.000000 u_2_1_2 - 4.968635 s_2_1  + 4.968635 s_2_7  + 2000.000000 r_2_1_2 > 43.371711
s_1_2 + s_1_3 + 1000 r_1_2_3 >= 2
- s_1_2 - s_1_3 - 1000 r_1_2_3 >= -1001
t_1_2 - t_1_3 - 1000.000000 u_1_2_3 - 5.352542 s_1_3  + 5.352542 s_1_8  + 2000.000000 r_1_2_3 > -953.530436
s_2_2 + s_2_3 + 1000 r_2_2_3 >= 2
- s_2_2 - s_2_3 - 1000 r_2_2_3 >= -1001
t_2_2 - t_2_3 - 1000.000000 u_2_2_3 - 4.968635 s_2_3  + 4.968635 s_2_8  + 2000.000000 r_2_2_3 > -927.142511
s_1_2 + s_1_4 + 1000 r_1_2_4 >= 2
- s_1_2 - s_1_4 - 1000 r_1_2_4 >= -1001
t_1_2 - t_1_4 - 1000.000000 u_1_2_4 - 8.363199 s_1_4  + 3.010658 s_1_3  + 5.352542 s_1_8  + 2000.000000 r_1_2_4 > -974.730811
s_2_2 + s_2_4 + 1000 r_2_2_4 >= 2
- s_2_2 - s_2_4 - 1000 r_2_2_4 >= -1001
t_2_2 - t_2_4 - 1000.000000 u_2_2_4 - 7.653379 s_2_4  + 2.684744 s_2_3  + 4.968635 s_2_8  + 2000.000000 r_2_2_4 > -961.402378
s_1_2 + s_1_5 + 1000 r_1_2_5 >= 2
- s_1_2 - s_1_5 - 1000 r_1_2_5 >= -1001
t_1_2 - t_1_5 - 1000.000000 u_1_2_5 - 10.705083 s_1_5  + 5.352542 s_1_7  + 5.352542 s_1_8  + 2000.000000 r_1_2_5 > -962.461933
s_2_2 + s_2_5 + 1000 r_2_2_5 >= 2
- s_2_2 - s_2_5 - 1000 r_2_2_5 >= -1001
t_2_2 - t_2_5 - 1000.000000 u_2_2_5 - 9.937270 s_2_5  + 4.968635 s_2_7  + 4.968635 s_2_8  + 2000.000000 r_2_2_5 > -947.876143
t_1_6 - t_1_2 - 1005.352542 s_1_2  + 5.352542 s_1_8  > -968.333600
t_1_6 - t_2_2 - 1004.968635 s_2_2  + 4.968635 s_2_8  > -952.000928
t_2_6 - t_1_2 - 1005.352542 s_1_2  + 5.352542 s_1_8  > -968.333600
t_2_6 - t_2_2 - 1004.968635 s_2_2  + 4.968635 s_2_8  > -952.000928
s_1_2 + s_1_7 + 1000 r_1_2_7 >= 2
- s_1_2 - s_1_7 - 1000 r_1_2_7 >= -1001
t_1_2 - t_1_7 - 1000.000000 u_1_2_7 - 0.000000 s_1_7  + 2000.000000 r_1_2_7 > -898.480800
s_2_2 + s_2_7 + 1000 r_2_2_7 >= 2
- s_2_2 - s_2_7 - 1000 r_2_2_7 >= -1001
t_2_2 - t_2_7 - 1000.000000 u_2_2_7 - 0.000000 s_2_7  + 2000.000000 r_2_2_7 > -881.834400
t_1_2 - t_1_8 - 1000.000000 s_1_8  > -898.976700
t_1_2 - t_2_8 - 1000.000000 s_2_8  > -881.826300
t_2_2 - t_1_8 - 1000.000000 s_1_8  > -898.976700
t_2_2 - t_2_8 - 1000.000000 s_2_8  > -881.826300
s_1_3 + s_1_1 + 1000 r_1_1_3 >= 2
- s_1_3 - s_1_1 - 1000 r_1_1_3 >= -1001
t_1_3 - t_1_1 + 1000.000000 u_1_1_3 - 5.352542 s_1_1  + 5.352542 s_1_7  + 2000.000000 r_1_1_3 > 28.691100
s_2_3 + s_2_1 + 1000 r_2_1_3 >= 2
- s_2_3 - s_2_1 - 1000 r_2_1_3 >= -1001
t_2_3 - t_2_1 + 1000.000000 u_2_1_3 - 4.968635 s_2_1  + 4.968635 s_2_7  + 2000.000000 r_2_1_3 > 43.371711
s_1_3 + s_1_2 + 1000 r_1_2_3 >= 2
- s_1_3 - s_1_2 - 1000 r_1_2_3 >= -1001
t_1_3 - t_1_2 + 1000.000000 u_1_2_3 - 5.352542 s_1_2  + 5.352542 s_1_8  + 2000.000000 r_1_2_3 > 31.666400
s_2_3 + s_2_2 + 1000 r_2_2_3 >= 2
- s_2_3 - s_2_2 - 1000 r_2_2_3 >= -1001
t_2_3 - t_2_2 + 1000.000000 u_2_2_3 - 4.968635 s_2_2  + 4.968635 s_2_8  + 2000.000000 r_2_2_3 > 47.999072
t_1_4 - t_1_3 - 1005.352542 s_1_3  + 5.352542 s_1_8  > -953.530436
t_1_4 - t_2_3 - 1004.968635 s_2_3  + 4.968635 s_2_8  > -927.142511
t_2_4 - t_1_3 - 1005.352542 s_1_3  + 5.352542 s_1_8  > -953.530436
t_2_4 - t_2_3 - 1004.968635 s_2_3  + 4.968635 s_2_8  > -927.142511
s_1_3 + s_1_5 + 1000 r_1_3_5 >= 2
- s_1_3 - s_1_5 - 1000 r_1_3_5 >= -1001
t_1_3 - t_1_5 - 1000.000000 u_1_3_5 - 10.705083 s_1_5  + 5.352542 s_1_7  + 5.352542 s_1_8  + 2000.000000 r_1_3_5 > -962.461933
s_2_3 + s_2_5 + 1000 r_2_3_5 >= 2
- s_2_3 - s_2_5 - 1000 r_2_3_5 >= -1001
t_2_3 - t_2_5 - 1000.000000 u_2_3_5 - 9.937270 s_2_5  + 4.968635 s_2_7  + 4.968635 s_2_8  + 2000.000000 r_2_3_5 > -947.876143
t_1_6 - t_1_3 - 1005.352542 s_1_3  + 5.352542 s_1_8  > -953.530436
t_1_6 - t_2_3 - 1004.968635 s_2_3  + 4.968635 s_2_8  > -927.142511
t_2_6 - t_1_3 - 1005.352542 s_1_3  + 5.352542 s_1_8  > -953.530436
t_2_6 - t_2_3 - 1004.968635 s_2_3  + 4.968635 s_2_8  > -927.142511
s_1_3 + s_1_7 + 1000 r_1_3_7 >= 2
- s_1_3 - s_1_7 - 1000 r_1_3_7 >= -1001
t_1_3 - t_1_7 - 1000.000000 u_1_3_7 - 0.000000 s_1_7  + 2000.000000 r_1_3_7 > -898.480800
s_2_3 + s_2_7 + 1000 r_2_3_7 >= 2
- s_2_3 - s_2_7 - 1000 r_2_3_7 >= -1001
t_2_3 - t_2_7 - 1000.000000 u_2_3_7 - 0.000000 s_2_7  + 2000.000000 r_2_3_7 > -881.834400
t_1_3 - t_1_8 - 1000.000000 s_1_8  > -898.976700
t_1_3 - t_2_8 - 1000.000000 s_2_8  > -881.826300
t_2_3 - t_1_8 - 1000.000000 s_1_8  > -898.976700
t_2_3 - t_2_8 - 1000.000000 s_2_8  > -881.826300
s_1_4 + s_1_1 + 1000 r_1_1_4 >= 2
- s_1_4 - s_1_1 - 1000 r_1_1_4 >= -1001
t_1_4 - t_1_1 + 1000.000000 u_1_1_4 - 5.352542 s_1_1  + 5.352542 s_1_7  + 2000.000000 r_1_1_4 > 28.691100
s_2_4 + s_2_1 + 1000 r_2_1_4 >= 2
- s_2_4 - s_2_1 - 1000 r_2_1_4 >= -1001
t_2_4 - t_2_1 + 1000.000000 u_2_1_4 - 4.968635 s_2_1  + 4.968635 s_2_7  + 2000.000000 r_2_1_4 > 43.371711
s_1_4 + s_1_2 + 1000 r_1_2_4 >= 2
- s_1_4 - s_1_2 - 1000 r_1_2_4 >= -1001
t_1_4 - t_1_2 + 1000.000000 u_1_2_4 - 5.352542 s_1_2  + 5.352542 s_1_8  + 2000.000000 r_1_2_4 > 31.666400
s_2_4 + s_2_2 + 1000 r_2_2_4 >= 2
- s_2_4 - s_2_2 - 1000 r_2_2_4 >= -1001
t_2_4 - t_2_2 + 1000.000000 u_2_2_4 - 4.968635 s_2_2  + 4.968635 s_2_8  + 2000.000000 r_2_2_4 > 47.999072
s_1_4 + s_1_5 + 1000 r_1_4_5 >= 2
- s_1_4 - s_1_5 - 1000 r_1_4_5 >= -1001
t_1_4 - t_1_5 - 1000.000000 u_1_4_5 - 10.705083 s_1_5  + 5.352542 s_1_7  + 5.352542 s_1_8  + 2000.000000 r_1_4_5 > -962.461933
s_2_4 + s_2_5 + 1000 r_2_4_5 >= 2
- s_2_4 - s_2_5 - 1000 r_2_4_5 >= -1001
t_2_4 - t_2_5 - 1000.000000 u_2_4_5 - 9.937270 s_2_5  + 4.968635 s_2_7  + 4.968635 s_2_8  + 2000.000000 r_2_4_5 > -947.876143
t_1_6 - t_1_4 - 1008.363199 s_1_4  + 3.010658 s_1_3  + 5.352542 s_1_8  > -974.730811
t_1_6 - t_2_4 - 1007.653379 s_2_4  + 2.684744 s_2_3  + 4.968635 s_2_8  > -961.402378
t_2_6 - t_1_4 - 1008.363199 s_1_4  + 3.010658 s_1_3  + 5.352542 s_1_8  > -974.730811
t_2_6 - t_2_4 - 1007.653379 s_2_4  + 2.684744 s_2_3  + 4.968635 s_2_8  > -961.402378
s_1_4 + s_1_7 + 1000 r_1_4_7 >= 2
- s_1_4 - s_1_7 - 1000 r_1_4_7 >= -1001
t_1_4 - t_1_7 - 1000.000000 u_1_4_7 - 0.000000 s_1_7  + 2000.000000 r_1_4_7 > -898.480800
s_2_4 + s_2_7 + 1000 r_2_4_7 >= 2
- s_2_4 - s_2_7 - 1000 r_2_4_7 >= -1001
t_2_4 - t_2_7 - 1000.000000 u_2_4_7 - 0.000000 s_2_7  + 2000.000000 r_2_4_7 > -881.834400
t_1_4 - t_1_8 - 1000.000000 s_1_8  > -898.976700
t_1_4 - t_2_8 - 1000.000000 s_2_8  > -881.826300
t_2_4 - t_1_8 - 1000.000000 s_1_8  > -898.976700
t_2_4 - t_2_8 - 1000.000000 s_2_8  > -881.826300
s_1_5 + s_1_1 + 1000 r_1_1_5 >= 2
- s_1_5 - s_1_1 - 1000 r_1_1_5 >= -1001
t_1_5 - t_1_1 + 1000.000000 u_1_1_5 - 5.352542 s_1_1  + 5.352542 s_1_7  + 2000.000000 r_1_1_5 > 28.691100
s_2_5 + s_2_1 + 1000 r_2_1_5 >= 2
- s_2_5 - s_2_1 - 1000 r_2_1_5 >= -1001
t_2_5 - t_2_1 + 1000.000000 u_2_1_5 - 4.968635 s_2_1  + 4.968635 s_2_7  + 2000.000000 r_2_1_5 > 43.371711
s_1_5 + s_1_2 + 1000 r_1_2_5 >= 2
- s_1_5 - s_1_2 - 1000 r_1_2_5 >= -1001
t_1_5 - t_1_2 + 1000.000000 u_1_2_5 - 5.352542 s_1_2  + 5.352542 s_1_8  + 2000.000000 r_1_2_5 > 31.666400
s_2_5 + s_2_2 + 1000 r_2_2_5 >= 2
- s_2_5 - s_2_2 - 1000 r_2_2_5 >= -1001
t_2_5 - t_2_2 + 1000.000000 u_2_2_5 - 4.968635 s_2_2  + 4.968635 s_2_8  + 2000.000000 r_2_2_5 > 47.999072
s_1_5 + s_1_3 + 1000 r_1_3_5 >= 2
- s_1_5 - s_1_3 - 1000 r_1_3_5 >= -1001
t_1_5 - t_1_3 + 1000.000000 u_1_3_5 - 5.352542 s_1_3  + 5.352542 s_1_8  + 2000.000000 r_1_3_5 > 46.469564
s_2_5 + s_2_3 + 1000 r_2_3_5 >= 2
- s_2_5 - s_2_3 - 1000 r_2_3_5 >= -1001
t_2_5 - t_2_3 + 1000.000000 u_2_3_5 - 4.968635 s_2_3  + 4.968635 s_2_8  + 2000.000000 r_2_3_5 > 72.857489
s_1_5 + s_1_4 + 1000 r_1_4_5 >= 2
- s_1_5 - s_1_4 - 1000 r_1_4_5 >= -1001
t_1_5 - t_1_4 + 1000.000000 u_1_4_5 - 8.363199 s_1_4  + 3.010658 s_1_3  + 5.352542 s_1_8  + 2000.000000 r_1_4_5 > 25.269189
s_2_5 + s_2_4 + 1000 r_2_4_5 >= 2
- s_2_5 - s_2_4 - 1000 r_2_4_5 >= -1001
t_2_5 - t_2_4 + 1000.000000 u_2_4_5 - 7.653379 s_2_4  + 2.684744 s_2_3  + 4.968635 s_2_8  + 2000.000000 r_2_4_5 > 38.597622
t_1_6 - t_1_5 - 1010.705083 s_1_5  + 5.352542 s_1_7  + 5.352542 s_1_8  > -962.461933
t_1_6 - t_2_5 - 1009.937270 s_2_5  + 4.968635 s_2_7  + 4.968635 s_2_8  > -947.876143
t_2_6 - t_1_5 - 1010.705083 s_1_5  + 5.352542 s_1_7  + 5.352542 s_1_8  > -962.461933
t_2_6 - t_2_5 - 1009.937270 s_2_5  + 4.968635 s_2_7  + 4.968635 s_2_8  > -947.876143
t_1_5 - t_1_7 - 1000.000000 s_1_7  > -898.480800
t_1_5 - t_2_7 - 1000.000000 s_2_7  > -881.834400
t_2_5 - t_1_7 - 1000.000000 s_1_7  > -898.480800
t_2_5 - t_2_7 - 1000.000000 s_2_7  > -881.834400
t_1_5 - t_1_8 - 1000.000000 s_1_8  > -898.976700
t_1_5 - t_2_8 - 1000.000000 s_2_8  > -881.826300
t_2_5 - t_1_8 - 1000.000000 s_1_8  > -898.976700
t_2_5 - t_2_8 - 1000.000000 s_2_8  > -881.826300
s_1_7 + s_1_2 + 1000 r_1_2_7 >= 2
- s_1_7 - s_1_2 - 1000 r_1_2_7 >= -1001
t_1_7 - t_1_2 + 1000.000000 u_1_2_7 - 5.352542 s_1_2  + 5.352542 s_1_8  + 2000.000000 r_1_2_7 > 31.666400
s_2_7 + s_2_2 + 1000 r_2_2_7 >= 2
- s_2_7 - s_2_2 - 1000 r_2_2_7 >= -1001
t_2_7 - t_2_2 + 1000.000000 u_2_2_7 - 4.968635 s_2_2  + 4.968635 s_2_8  + 2000.000000 r_2_2_7 > 47.999072
s_1_7 + s_1_3 + 1000 r_1_3_7 >= 2
- s_1_7 - s_1_3 - 1000 r_1_3_7 >= -1001
t_1_7 - t_1_3 + 1000.000000 u_1_3_7 - 5.352542 s_1_3  + 5.352542 s_1_8  + 2000.000000 r_1_3_7 > 46.469564
s_2_7 + s_2_3 + 1000 r_2_3_7 >= 2
- s_2_7 - s_2_3 - 1000 r_2_3_7 >= -1001
t_2_7 - t_2_3 + 1000.000000 u_2_3_7 - 4.968635 s_2_3  + 4.968635 s_2_8  + 2000.000000 r_2_3_7 > 72.857489
s_1_7 + s_1_4 + 1000 r_1_4_7 >= 2
- s_1_7 - s_1_4 - 1000 r_1_4_7 >= -1001
t_1_7 - t_1_4 + 1000.000000 u_1_4_7 - 8.363199 s_1_4  + 3.010658 s_1_3  + 5.352542 s_1_8  + 2000.000000 r_1_4_7 > 25.269189
s_2_7 + s_2_4 + 1000 r_2_4_7 >= 2
- s_2_7 - s_2_4 - 1000 r_2_4_7 >= -1001
t_2_7 - t_2_4 + 1000.000000 u_2_4_7 - 7.653379 s_2_4  + 2.684744 s_2_3  + 4.968635 s_2_8  + 2000.000000 r_2_4_7 > 38.597622
s_1_7 + s_1_8 + 1000 r_1_7_8 >= 2
- s_1_7 - s_1_8 - 1000 r_1_7_8 >= -1001
t_1_7 - t_1_8 - 1000.000000 u_1_7_8 - 0.000000 s_1_8  + 2000.000000 r_1_7_8 > -898.976700
s_2_7 + s_2_8 + 1000 r_2_7_8 >= 2
- s_2_7 - s_2_8 - 1000 r_2_7_8 >= -1001
t_2_7 - t_2_8 - 1000.000000 u_2_7_8 - 0.000000 s_2_8  + 2000.000000 r_2_7_8 > -881.826300
s_1_8 + s_1_1 + 1000 r_1_1_8 >= 2
- s_1_8 - s_1_1 - 1000 r_1_1_8 >= -1001
t_1_8 - t_1_1 + 1000.000000 u_1_1_8 - 5.352542 s_1_1  + 5.352542 s_1_7  + 2000.000000 r_1_1_8 > 28.691100
s_2_8 + s_2_1 + 1000 r_2_1_8 >= 2
- s_2_8 - s_2_1 - 1000 r_2_1_8 >= -1001
t_2_8 - t_2_1 + 1000.000000 u_2_1_8 - 4.968635 s_2_1  + 4.968635 s_2_7  + 2000.000000 r_2_1_8 > 43.371711
s_1_8 + s_1_7 + 1000 r_1_7_8 >= 2
- s_1_8 - s_1_7 - 1000 r_1_7_8 >= -1001
t_1_8 - t_1_7 + 1000.000000 u_1_7_8 - 0.000000 s_1_7  + 2000.000000 r_1_7_8 > 101.519200
s_2_8 + s_2_7 + 1000 r_2_7_8 >= 2
- s_2_8 - s_2_7 - 1000 r_2_7_8 >= -1001
t_2_8 - t_2_7 + 1000.000000 u_2_7_8 - 0.000000 s_2_7  + 2000.000000 r_2_7_8 > 118.165600
Binary
s_1_1
s_2_1
s_1_2
s_2_2
s_1_3
s_2_3
s_1_4
s_2_4
s_1_5
s_2_5
s_1_6
s_2_6
s_1_7
s_2_7
s_1_8
s_2_8
u_1_1_2
r_1_1_2
u_2_1_2
r_2_1_2
u_1_1_3
r_1_1_3
u_2_1_3
r_2_1_3
u_1_1_4
r_1_1_4
u_2_1_4
r_2_1_4
u_1_1_5
r_1_1_5
u_2_1_5
r_2_1_5
u_1_1_8
r_1_1_8
u_2_1_8
r_2_1_8
u_1_2_3
r_1_2_3
u_2_2_3
r_2_2_3
u_1_2_4
r_1_2_4
u_2_2_4
r_2_2_4
u_1_2_5
r_1_2_5
u_2_2_5
r_2_2_5
u_1_2_7
r_1_2_7
u_2_2_7
r_2_2_7
u_1_3_5
r_1_3_5
u_2_3_5
r_2_3_5
u_1_3_7
r_1_3_7
u_2_3_7
r_2_3_7
u_1_4_5
r_1_4_5
u_2_4_5
r_2_4_5
u_1_4_7
r_1_4_7
u_2_4_7
r_2_4_7
u_1_7_8
r_1_7_8
u_2_7_8
r_2_7_8

End
